(set-logic ALL)
(declare-fun var0 () String)
(assert (str.in_re var0 (re.++ (re.+ (re.* (str.to_re "0"))) (re.++ (re.union (re.* (str.to_re "1")) (re.* (str.to_re "22"))) (re.++ (re.* (re.+ (str.to_re "3"))) (re.++ (re.+ (re.+ (str.to_re "444"))) (re.++ (re.+ (re.union (str.to_re "55") (str.to_re "6"))) (re.++ (re.union (re.union (str.to_re "7") (str.to_re "888")) (re.union (str.to_re "999") (str.to_re "aa"))) (re.++ (re.+ (re.+ (str.to_re "bb"))) (re.++ (re.* (re.* (str.to_re "c"))) (re.++ (re.* (re.+ (str.to_re "ddd"))) (re.+ (re.+ (str.to_re "eee"))))))))))))))
(assert (<= 301 (str.len var0)))
(check-sat)